(set-logic ALL)
(declare-fun var0 () String)
(assert (str.in_re var0 (re.++ (re.+ (re.union (str.to_re "00") (str.to_re "11"))) (re.++ (re.* (re.+ (str.to_re "222"))) (re.++ (re.union (re.* (str.to_re "333")) (re.* (str.to_re "4"))) (re.++ (re.+ (re.* (str.to_re "5"))) (re.++ (re.* (re.union (str.to_re "6") (str.to_re "77"))) (re.++ (re.union (re.union (str.to_re "888") (str.to_re "9")) (re.union (str.to_re "aa") (str.to_re "bbb"))) (re.++ (re.* (re.union (str.to_re "ccc") (str.to_re "ddd"))) (re.++ (re.+ (re.* (str.to_re "ee"))) (re.++ (re.* (re.+ (str.to_re "fff"))) (re.+ (re.+ (str.to_re "gg"))))))))))))))
(assert (str.in_re var0 (re.++ (re.union (re.* (str.to_re "000")) (re.* (str.to_re "111"))) (re.++ (re.+ (re.* (str.to_re "2"))) (re.++ (re.+ (re.* (str.to_re "3"))) (re.++ (re.* (re.+ (str.to_re "444"))) (re.++ (re.union (re.union (str.to_re "5") (str.to_re "6")) (re.union (str.to_re "77") (str.to_re "8"))) (re.++ (re.* (re.* (str.to_re "999"))) (re.++ (re.union (re.+ (str.to_re "aa")) (re.+ (str.to_re "bbb"))) (re.++ (re.* (re.union (str.to_re "cc") (str.to_re "ddd"))) (re.++ (re.+ (re.union (str.to_re "e") (str.to_re "ff"))) (re.* (re.union (str.to_re "ggg") (str.to_re "h"))))))))))))))
(assert (str.in_re var0 (re.++ (re.* (re.+ (str.to_re "00"))) (re.++ (re.* (re.* (str.to_re "111"))) (re.++ (re.* (re.+ (str.to_re "22"))) (re.++ (re.+ (re.union (str.to_re "333") (str.to_re "44"))) (re.++ (re.union (re.* (str.to_re "55")) (re.* (str.to_re "6"))) (re.++ (re.union (re.union (str.to_re "777") (str.to_re "88")) (re.union (str.to_re "999") (str.to_re "a"))) (re.++ (re.+ (re.+ (str.to_re "bbb"))) (re.++ (re.+ (re.+ (str.to_re "c"))) (re.++ (re.+ (re.+ (str.to_re "d"))) (re.union (re.union (str.to_re "e") (str.to_re "ff")) (re.union (str.to_re "g") (str.to_re "hh"))))))))))))))
(assert (str.in_re var0 (re.++ (re.union (re.union (str.to_re "0") (str.to_re "111")) (re.union (str.to_re "2") (str.to_re "333"))) (re.++ (re.* (re.union (str.to_re "44") (str.to_re "555"))) (re.++ (re.+ (re.union (str.to_re "666") (str.to_re "7"))) (re.++ (re.+ (re.union (str.to_re "888") (str.to_re "99"))) (re.++ (re.+ (re.* (str.to_re "aa"))) (re.++ (re.* (re.* (str.to_re "b"))) (re.++ (re.* (re.+ (str.to_re "ccc"))) (re.++ (re.union (re.* (str.to_re "ddd")) (re.* (str.to_re "eee"))) (re.++ (re.+ (re.* (str.to_re "f"))) (re.+ (re.* (str.to_re "ggg"))))))))))))))
(assert (str.in_re var0 (re.++ (re.* (re.* (str.to_re "0"))) (re.++ (re.+ (re.* (str.to_re "111"))) (re.++ (re.+ (re.+ (str.to_re "2"))) (re.++ (re.+ (re.* (str.to_re "3"))) (re.++ (re.union (re.* (str.to_re "44")) (re.* (str.to_re "55"))) (re.++ (re.+ (re.union (str.to_re "66") (str.to_re "77"))) (re.++ (re.union (re.union (str.to_re "888") (str.to_re "9")) (re.union (str.to_re "aa") (str.to_re "bbb"))) (re.++ (re.+ (re.+ (str.to_re "cc"))) (re.++ (re.union (re.union (str.to_re "ddd") (str.to_re "ee")) (re.union (str.to_re "fff") (str.to_re "gg"))) (re.union (re.union (str.to_re "hh") (str.to_re "ii")) (re.union (str.to_re "jjj") (str.to_re "k"))))))))))))))
(assert (str.in_re var0 (re.++ (re.* (re.+ (str.to_re "0"))) (re.++ (re.* (re.union (str.to_re "111") (str.to_re "222"))) (re.++ (re.union (re.union (str.to_re "3") (str.to_re "4")) (re.union (str.to_re "55") (str.to_re "666"))) (re.++ (re.* (re.union (str.to_re "77") (str.to_re "888"))) (re.++ (re.union (re.* (str.to_re "99")) (re.* (str.to_re "aa"))) (re.++ (re.+ (re.* (str.to_re "b"))) (re.++ (re.union (re.+ (str.to_re "cc")) (re.+ (str.to_re "dd"))) (re.++ (re.* (re.union (str.to_re "ee") (str.to_re "ff"))) (re.++ (re.* (re.* (str.to_re "gg"))) (re.union (re.+ (str.to_re "hhh")) (re.+ (str.to_re "ii"))))))))))))))
(assert (str.in_re var0 (re.++ (re.* (re.+ (str.to_re "0"))) (re.++ (re.* (re.* (str.to_re "11"))) (re.++ (re.* (re.* (str.to_re "222"))) (re.++ (re.union (re.+ (str.to_re "333")) (re.+ (str.to_re "444"))) (re.++ (re.* (re.union (str.to_re "555") (str.to_re "66"))) (re.++ (re.union (re.union (str.to_re "777") (str.to_re "888")) (re.union (str.to_re "99") (str.to_re "aa"))) (re.++ (re.* (re.union (str.to_re "bbb") (str.to_re "c"))) (re.++ (re.* (re.* (str.to_re "ddd"))) (re.++ (re.+ (re.+ (str.to_re "eee"))) (re.union (re.* (str.to_re "fff")) (re.* (str.to_re "g"))))))))))))))
(assert (str.in_re var0 (re.++ (re.* (re.union (str.to_re "000") (str.to_re "1"))) (re.++ (re.+ (re.+ (str.to_re "2"))) (re.++ (re.* (re.+ (str.to_re "33"))) (re.++ (re.union (re.+ (str.to_re "44")) (re.+ (str.to_re "555"))) (re.++ (re.+ (re.union (str.to_re "666") (str.to_re "777"))) (re.++ (re.* (re.+ (str.to_re "8"))) (re.++ (re.* (re.+ (str.to_re "9"))) (re.++ (re.+ (re.union (str.to_re "a") (str.to_re "bb"))) (re.++ (re.union (re.union (str.to_re "c") (str.to_re "ddd")) (re.union (str.to_re "eee") (str.to_re "fff"))) (re.union (re.* (str.to_re "gg")) (re.* (str.to_re "hh"))))))))))))))
(assert (str.in_re var0 (re.++ (re.* (re.+ (str.to_re "0"))) (re.++ (re.* (re.+ (str.to_re "1"))) (re.++ (re.union (re.union (str.to_re "2") (str.to_re "333")) (re.union (str.to_re "44") (str.to_re "5"))) (re.++ (re.+ (re.* (str.to_re "66"))) (re.++ (re.+ (re.+ (str.to_re "7"))) (re.++ (re.union (re.+ (str.to_re "888")) (re.+ (str.to_re "99"))) (re.++ (re.union (re.* (str.to_re "aa")) (re.* (str.to_re "b"))) (re.++ (re.union (re.union (str.to_re "cc") (str.to_re "ddd")) (re.union (str.to_re "eee") (str.to_re "f"))) (re.++ (re.+ (re.* (str.to_re "ggg"))) (re.+ (re.* (str.to_re "hh"))))))))))))))
(assert (str.in_re var0 (re.++ (re.+ (re.* (str.to_re "00"))) (re.++ (re.* (re.+ (str.to_re "111"))) (re.++ (re.union (re.union (str.to_re "2") (str.to_re "3")) (re.union (str.to_re "444") (str.to_re "5"))) (re.++ (re.* (re.+ (str.to_re "666"))) (re.++ (re.* (re.union (str.to_re "77") (str.to_re "88"))) (re.++ (re.union (re.* (str.to_re "99")) (re.* (str.to_re "aaa"))) (re.++ (re.union (re.+ (str.to_re "bb")) (re.+ (str.to_re "ccc"))) (re.++ (re.+ (re.+ (str.to_re "d"))) (re.++ (re.+ (re.union (str.to_re "eee") (str.to_re "fff"))) (re.* (re.* (str.to_re "ggg"))))))))))))))
(assert (str.in_re var0 (re.++ (re.* (re.+ (str.to_re "000"))) (re.++ (re.union (re.+ (str.to_re "11")) (re.+ (str.to_re "22"))) (re.++ (re.union (re.union (str.to_re "3") (str.to_re "444")) (re.union (str.to_re "55") (str.to_re "66"))) (re.++ (re.union (re.union (str.to_re "77") (str.to_re "888")) (re.union (str.to_re "99") (str.to_re "a"))) (re.++ (re.union (re.+ (str.to_re "bbb")) (re.+ (str.to_re "ccc"))) (re.++ (re.* (re.+ (str.to_re "ddd"))) (re.++ (re.* (re.+ (str.to_re "eee"))) (re.++ (re.union (re.+ (str.to_re "f")) (re.+ (str.to_re "g"))) (re.++ (re.union (re.* (str.to_re "hh")) (re.* (str.to_re "ii"))) (re.union (re.union (str.to_re "j") (str.to_re "k")) (re.union (str.to_re "ll") (str.to_re "mmm"))))))))))))))
(assert (str.in_re var0 (re.++ (re.+ (re.union (str.to_re "0") (str.to_re "111"))) (re.++ (re.+ (re.* (str.to_re "222"))) (re.++ (re.+ (re.* (str.to_re "3"))) (re.++ (re.+ (re.* (str.to_re "44"))) (re.++ (re.+ (re.* (str.to_re "555"))) (re.++ (re.* (re.+ (str.to_re "66"))) (re.++ (re.union (re.+ (str.to_re "777")) (re.+ (str.to_re "88"))) (re.++ (re.union (re.union (str.to_re "99") (str.to_re "aaa")) (re.union (str.to_re "bb") (str.to_re "c"))) (re.++ (re.+ (re.union (str.to_re "dd") (str.to_re "eee"))) (re.+ (re.union (str.to_re "f") (str.to_re "gg"))))))))))))))
(assert (str.in_re var0 (re.++ (re.+ (re.+ (str.to_re "0"))) (re.++ (re.* (re.union (str.to_re "11") (str.to_re "2"))) (re.++ (re.* (re.+ (str.to_re "33"))) (re.++ (re.* (re.+ (str.to_re "4"))) (re.++ (re.union (re.* (str.to_re "5")) (re.* (str.to_re "66"))) (re.++ (re.union (re.union (str.to_re "77") (str.to_re "88")) (re.union (str.to_re "9") (str.to_re "aaa"))) (re.++ (re.+ (re.+ (str.to_re "bbb"))) (re.++ (re.* (re.+ (str.to_re "cc"))) (re.++ (re.* (re.* (str.to_re "dd"))) (re.+ (re.* (str.to_re "eee"))))))))))))))
(check-sat)